p cnf 178 268
-90 41 0
-90 42 0
90 -41 -42 0
-91 37 0
-91 38 0
91 -37 -38 0
-92 33 0
-92 34 0
92 -33 -34 0
-93 31 0
-93 32 0
93 -31 -32 0
-94 29 0
-94 30 0
94 -29 -30 0
-95 19 0
-95 20 0
95 -19 -20 0
-96 5 0
-96 6 0
96 -5 -6 0
-97 3 0
-97 4 0
97 -3 -4 0
-98 1 0
-98 2 0
98 -1 -2 0
-99 -97 0
-99 -98 0
99 97 98 0
-100 -96 0
-100 99 0
100 96 -99 0
-101 7 0
-101 8 0
101 -7 -8 0
-102 100 0
-102 -101 0
102 -100 101 0
-103 9 0
-103 10 0
103 -9 -10 0
-104 102 0
-104 -103 0
104 -102 103 0
-105 11 0
-105 12 0
105 -11 -12 0
-106 104 0
-106 -105 0
106 -104 105 0
-107 13 0
-107 14 0
107 -13 -14 0
-108 106 0
-108 -107 0
108 -106 107 0
-109 15 0
-109 16 0
109 -15 -16 0
-110 108 0
-110 -109 0
110 -108 109 0
-111 17 0
-111 18 0
111 -17 -18 0
-112 110 0
-112 -111 0
112 -110 111 0
-113 -95 0
-113 112 0
113 95 -112 0
-114 21 0
-114 22 0
114 -21 -22 0
-115 113 0
-115 -114 0
115 -113 114 0
-116 23 0
-116 24 0
116 -23 -24 0
-117 115 0
-117 -116 0
117 -115 116 0
-118 25 0
-118 26 0
118 -25 -26 0
-119 117 0
-119 -118 0
119 -117 118 0
-120 27 0
-120 28 0
120 -27 -28 0
-121 119 0
-121 -120 0
121 -119 120 0
-122 -94 0
-122 121 0
122 94 -121 0
-123 -93 0
-123 122 0
123 93 -122 0
-124 -92 0
-124 123 0
124 92 -123 0
-125 35 0
-125 36 0
125 -35 -36 0
-126 124 0
-126 -125 0
126 -124 125 0
-127 -91 0
-127 126 0
127 91 -126 0
-128 39 0
-128 40 0
128 -39 -40 0
-129 127 0
-129 -128 0
129 -127 128 0
-130 -90 0
-130 129 0
130 90 -129 0
-131 43 0
-131 44 0
131 -43 -44 0
-132 130 0
-132 -131 0
132 -130 131 0
-133 89 0
-133 -132 0
133 -89 132 0
-134 83 0
-134 84 0
134 -83 -84 0
-135 75 0
-135 76 0
135 -75 -76 0
-136 71 0
-136 72 0
136 -71 -72 0
-137 69 0
-137 70 0
137 -69 -70 0
-138 65 0
-138 66 0
138 -65 -66 0
-139 63 0
-139 64 0
139 -63 -64 0
-140 61 0
-140 62 0
140 -61 -62 0
-141 59 0
-141 60 0
141 -59 -60 0
-142 57 0
-142 58 0
142 -57 -58 0
-143 53 0
-143 54 0
143 -53 -54 0
-144 49 0
-144 50 0
144 -49 -50 0
-145 45 0
-145 46 0
145 -45 -46 0
-146 47 0
-146 48 0
146 -47 -48 0
-147 -145 0
-147 -146 0
147 145 146 0
-148 -144 0
-148 147 0
148 144 -147 0
-149 51 0
-149 52 0
149 -51 -52 0
-150 148 0
-150 -149 0
150 -148 149 0
-151 -143 0
-151 150 0
151 143 -150 0
-152 55 0
-152 56 0
152 -55 -56 0
-153 151 0
-153 -152 0
153 -151 152 0
-154 -142 0
-154 153 0
154 142 -153 0
-155 -141 0
-155 154 0
155 141 -154 0
-156 -140 0
-156 155 0
156 140 -155 0
-157 -139 0
-157 156 0
157 139 -156 0
-158 -138 0
-158 157 0
158 138 -157 0
-159 67 0
-159 68 0
159 -67 -68 0
-160 158 0
-160 -159 0
160 -158 159 0
-161 -137 0
-161 160 0
161 137 -160 0
-162 -136 0
-162 161 0
162 136 -161 0
-163 73 0
-163 74 0
163 -73 -74 0
-164 162 0
-164 -163 0
164 -162 163 0
-165 -135 0
-165 164 0
165 135 -164 0
-166 77 0
-166 78 0
166 -77 -78 0
-167 165 0
-167 -166 0
167 -165 166 0
-168 79 0
-168 80 0
168 -79 -80 0
-169 167 0
-169 -168 0
169 -167 168 0
-170 81 0
-170 82 0
170 -81 -82 0
-171 169 0
-171 -170 0
171 -169 170 0
-172 -134 0
-172 171 0
172 134 -171 0
-173 85 0
-173 86 0
173 -85 -86 0
-174 172 0
-174 -173 0
174 -172 173 0
-175 87 0
-175 88 0
175 -87 -88 0
-176 174 0
-176 -175 0
176 -174 175 0
-177 -89 0
-177 -176 0
177 89 176 0
-178 -133 0
-178 -177 0
178 133 177 0
-178 0
